100
128
40
44
51
39
26
3
15
6
45
2
46
25
20
7
27
37
37
16
6
10
14
11
7
25
10
14
45
8
2
2
30
11
17
8
47
1
35
21
21
39
14
32
10
16
51
23
24
37
29
58
30
38
36
14
30
48
15
15
12
20
2
15
5
27
37
21
51
39
42
40
46
38
29
45
54
32
63
32
45
18
31
64
64
3
29
40
49
62
63
63
64
40
34
64
64
54
1
37
64
64